(set-logic HORN)
(declare-datatypes ((Nat_125 0)) (((Z_357 ) (S_125 (projS_120 Nat_125)))))
(declare-fun diseqNat_125 (Nat_125 Nat_125) Bool)
(declare-fun projS_121 (Nat_125 Nat_125) Bool)
(declare-fun isZ_125 (Nat_125) Bool)
(declare-fun isS_125 (Nat_125) Bool)
(assert (forall ((x_3502 Nat_125))
	(projS_121 x_3502 (S_125 x_3502))))
(assert (isZ_125 Z_357))
(assert (forall ((x_3504 Nat_125))
	(isS_125 (S_125 x_3504))))
(assert (forall ((x_3505 Nat_125))
	(diseqNat_125 Z_357 (S_125 x_3505))))
(assert (forall ((x_3506 Nat_125))
	(diseqNat_125 (S_125 x_3506) Z_357)))
(assert (forall ((x_3507 Nat_125) (x_3508 Nat_125))
	(=> (diseqNat_125 x_3507 x_3508)
	    (diseqNat_125 (S_125 x_3507) (S_125 x_3508)))))
(declare-datatypes ((list_59 0)) (((nil_59 ) (cons_59 (head_118 Nat_125) (tail_118 list_59)))))
(declare-fun diseqlist_59 (list_59 list_59) Bool)
(declare-fun head_119 (Nat_125 list_59) Bool)
(declare-fun tail_119 (list_59 list_59) Bool)
(declare-fun isnil_59 (list_59) Bool)
(declare-fun iscons_59 (list_59) Bool)
(assert (forall ((x_3510 Nat_125) (x_3511 list_59))
	(head_119 x_3510 (cons_59 x_3510 x_3511))))
(assert (forall ((x_3510 Nat_125) (x_3511 list_59))
	(tail_119 x_3511 (cons_59 x_3510 x_3511))))
(assert (isnil_59 nil_59))
(assert (forall ((x_3513 Nat_125) (x_3514 list_59))
	(iscons_59 (cons_59 x_3513 x_3514))))
(assert (forall ((x_3515 Nat_125) (x_3516 list_59))
	(diseqlist_59 nil_59 (cons_59 x_3515 x_3516))))
(assert (forall ((x_3517 Nat_125) (x_3518 list_59))
	(diseqlist_59 (cons_59 x_3517 x_3518) nil_59)))
(assert (forall ((x_3519 Nat_125) (x_3520 list_59) (x_3521 Nat_125) (x_3522 list_59))
	(=> (diseqNat_125 x_3519 x_3521)
	    (diseqlist_59 (cons_59 x_3519 x_3520) (cons_59 x_3521 x_3522)))))
(assert (forall ((x_3519 Nat_125) (x_3520 list_59) (x_3521 Nat_125) (x_3522 list_59))
	(=> (diseqlist_59 x_3520 x_3522)
	    (diseqlist_59 (cons_59 x_3519 x_3520) (cons_59 x_3521 x_3522)))))
(declare-fun last_6 (Nat_125 list_59) Bool)
(assert (forall ((x_3490 Nat_125) (x_3486 Nat_125) (x_3487 list_59) (y_285 Nat_125))
	(=> (last_6 x_3490 (cons_59 x_3486 x_3487))
	    (last_6 x_3490 (cons_59 y_285 (cons_59 x_3486 x_3487))))))
(assert (forall ((x_3492 Nat_125))
	(last_6 x_3492 (cons_59 x_3492 nil_59))))
(assert (last_6 Z_357 nil_59))
(declare-fun x_3488 (list_59 list_59 list_59) Bool)
(assert (forall ((x_3495 list_59) (z_359 Nat_125) (xs_110 list_59) (y_286 list_59))
	(=> (x_3488 x_3495 xs_110 y_286)
	    (x_3488 (cons_59 z_359 x_3495) (cons_59 z_359 xs_110) y_286))))
(assert (forall ((x_3496 list_59))
	(x_3488 x_3496 nil_59 x_3496)))
(assert (forall ((x_3497 list_59) (x_3498 Nat_125) (x_3499 Nat_125) (xs_111 list_59))
	(=>	(and true
			(diseqNat_125 x_3498 x_3499)
			(x_3488 x_3497 xs_111 nil_59)
			(last_6 x_3498 x_3497)
			(last_6 x_3499 xs_111))
		false)))
(check-sat)
